data;


param d:= 100;
param r:=5;
param p:=0.500000;
param M:=1000;
param U:=
         1         1       -9.854474e-01
         2         1        1.462046e+00
         3         1       -7.485507e-01
         4         1       -2.645785e-02
         5         1        3.322088e-02
         6         1       -4.784304e-01
         7         1       -2.310185e-02
         8         1       -2.330340e+00
         9         1        2.288181e-01
        10         1        4.272228e-01
        11         1        6.417856e-02
        12         1        9.207553e-01
        13         1       -6.186393e-02
        14         1        8.680088e-01
        15         1        7.499859e-01
        16         1        6.820328e-01
        17         1        5.898697e-01
        18         1        1.558055e-01
        19         1       -4.932477e-01
        20         1       -1.331678e+00
        21         1       -2.827661e-01
        22         1       -7.477676e-01
        23         1        7.836672e-01
        24         1        8.192941e-01
        25         1        1.972457e-01
        26         1       -1.548957e-01
        27         1        1.849656e+00
        28         1        7.303830e-01
        29         1        4.342762e-01
        30         1       -9.158361e-01
        31         1        5.178548e-01
        32         1       -1.307451e+00
        33         1        2.047876e-02
        34         1       -1.574702e-01
        35         1       -1.024214e+00
        36         1       -1.011404e+00
        37         1        1.664457e-01
        38         1       -1.441624e-01
        39         1       -1.425644e+00
        40         1       -1.336508e+00
        41         1        6.571534e-01
        42         1       -1.074945e+00
        43         1       -2.234990e+00
        44         1        1.820873e+00
        45         1       -3.682927e-01
        46         1        7.689742e-01
        47         1       -1.814610e-01
        48         1       -1.167911e+00
        49         1        7.753443e-01
        50         1        5.451335e-01
        51         1        2.277246e-01
        52         1       -1.313024e+00
        53         1        8.996082e-01
        54         1        7.041637e-02
        55         1       -1.155095e+00
        56         1       -3.123554e-02
        57         1       -8.449862e-01
        58         1       -5.521955e-01
        59         1        8.264629e-02
        60         1       -2.688041e-02
        61         1        5.206451e-01
        62         1       -1.244503e+00
        63         1        1.517183e+00
        64         1       -2.008009e+00
        65         1        5.027917e-01
        66         1        4.252192e-01
        67         1       -1.267614e-01
        68         1        7.840087e-01
        69         1        1.120482e+00
        70         1       -9.488940e-01
        71         1       -9.688725e-01
        72         1        8.499247e-01
        73         1        1.337930e+00
        74         1       -4.209029e-02
        75         1        1.364894e+00
        76         1        6.257213e-02
        77         1       -3.121094e-01
        78         1       -1.380123e+00
        79         1        2.653820e-01
        80         1        9.845395e-01
        81         1       -6.181866e-01
        82         1       -1.656211e+00
        83         1       -1.031677e+00
        84         1        8.222270e-01
        85         1        4.177521e-03
        86         1        6.882279e-01
        87         1       -1.069916e+00
        88         1       -2.206172e-01
        89         1        1.242369e-01
        90         1        2.776942e-01
        91         1        1.851564e+00
        92         1       -9.052130e-01
        93         1        1.404561e+00
        94         1       -5.500921e-01
        95         1        1.461196e+00
        96         1       -2.995735e-01
        97         1        4.636414e-01
        98         1       -5.962471e-01
        99         1        1.148527e+00
       100         1        2.205453e-01
         1         2        1.401043e-01
         2         2        6.718300e-01
         3         2        1.317365e+00
         4         2       -1.232914e-01
         5         2       -9.035579e-01
         6         2       -1.423097e+00
         7         2        4.309125e-01
         8         2       -1.102482e+00
         9         2        3.637667e-01
        10         2        7.975809e-01
        11         2       -7.821999e-01
        12         2       -2.847955e-02
        13         2       -1.640990e+00
        14         2        5.055399e-01
        15         2       -1.733683e-01
        16         2        6.071244e-01
        17         2        7.465091e-01
        18         2       -1.515334e+00
        19         2        9.402460e-01
        20         2       -4.967239e-01
        21         2       -5.038459e-01
        22         2       -1.875100e-01
        23         2        1.703768e-01
        24         2        7.127900e-01
        25         2        9.624800e-01
        26         2        2.008424e+00
        27         2       -6.082373e-01
        28         2        1.222915e+00
        29         2       -1.287390e+00
        30         2       -1.583109e+00
        31         2       -3.843403e-01
        32         2        1.616939e+00
        33         2        7.031488e-01
        34         2        1.565164e+00
        35         2       -7.870212e-01
        36         2        5.022986e-01
        37         2       -1.000804e+00
        38         2       -5.860243e-01
        39         2        7.257630e-01
        40         2       -1.569918e+00
        41         2       -2.003859e+00
        42         2       -1.064910e-01
        43         2       -8.073088e-01
        44         2        2.303236e-01
        45         2        4.154408e-01
        46         2        5.013982e-01
        47         2       -9.338412e-02
        48         2        8.343540e-01
        49         2        1.261845e+00
        50         2       -4.523251e-01
        51         2       -4.580516e-01
        52         2       -1.171575e+00
        53         2        3.493031e-01
        54         2        1.121350e+00
        55         2        2.300771e-01
        56         2       -1.124671e+00
        57         2       -9.113704e-01
        58         2        1.115838e+00
        59         2        4.753539e-01
        60         2        1.920325e-01
        61         2        3.698155e-01
        62         2        6.805946e-02
        63         2        2.300190e-01
        64         2       -1.071265e+00
        65         2       -8.792336e-01
        66         2       -3.171287e-01
        67         2       -7.976201e-02
        68         2        1.365169e+00
        69         2       -1.989369e+00
        70         2       -1.739065e-01
        71         2        3.334250e-01
        72         2        4.578344e-01
        73         2       -2.533982e-01
        74         2       -6.108416e-01
        75         2        1.756528e+00
        76         2        5.719125e-01
        77         2        9.258010e-01
        78         2        1.418017e+00
        79         2       -7.624324e-04
        80         2       -1.238117e+00
        81         2       -1.420482e+00
        82         2       -2.939314e-01
        83         2        1.064804e-01
        84         2        5.528463e-01
        85         2       -6.834839e-02
        86         2       -4.144342e-01
        87         2        4.178491e-01
        88         2       -1.169940e+00
        89         2        7.256816e-01
        90         2       -2.899078e-01
        91         2        1.825718e+00
        92         2        8.596754e-01
        93         2       -2.726317e-01
        94         2        6.103086e-03
        95         2        8.055744e-01
        96         2       -6.807084e-01
        97         2       -4.539281e-01
        98         2       -2.392526e-01
        99         2        2.203721e+00
       100         2        3.269369e-01
         1         3       -3.761564e-01
         2         3       -5.917308e-01
         3         3       -1.892062e+00
         4         3        8.391426e-01
         5         3        1.996477e-01
         6         3       -1.816114e+00
         7         3        3.036193e-01
         8         3       -2.375388e+00
         9         3       -4.293420e-01
        10         3       -1.177646e+00
        11         3        5.994893e-01
        12         3       -3.642673e-01
        13         3       -1.544293e+00
        14         3       -6.844871e-01
        15         3       -6.949139e-01
        16         3       -1.748678e+00
        17         3       -1.847056e-01
        18         3       -3.401029e-01
        19         3        2.166113e+00
        20         3       -9.735117e-01
        21         3        2.470835e-01
        22         3        4.253174e-01
        23         3       -8.657829e-01
        24         3       -2.004799e+00
        25         3       -1.485489e+00
        26         3       -1.330620e+00
        27         3        2.889337e-01
        28         3       -6.367965e-01
        29         3       -4.834197e-01
        30         3       -1.144079e-01
        31         3       -1.009802e-02
        32         3        1.953606e+00
        33         3        1.960249e+00
        34         3       -1.516064e+00
        35         3        3.112184e-01
        36         3        2.004873e+00
        37         3        8.320538e-01
        38         3       -1.951124e-01
        39         3       -1.452550e+00
        40         3        1.286916e+00
        41         3       -1.385230e+00
        42         3        6.943564e-01
        43         3       -1.248306e-01
        44         3       -2.290879e+00
        45         3       -1.499382e+00
        46         3       -1.449736e+00
        47         3       -7.904544e-02
        48         3       -2.538834e-01
        49         3        9.707423e-01
        50         3       -2.582949e-01
        51         3       -1.899339e+00
        52         3        5.302680e-01
        53         3       -1.805734e-01
        54         3       -9.405513e-02
        55         3        2.087520e+00
        56         3       -1.601086e+00
        57         3       -1.453033e-01
        58         3       -3.128702e-01
        59         3        7.357421e-01
        60         3       -7.755224e-01
        61         3        6.435480e-01
        62         3        3.680081e-01
        63         3        9.522593e-01
        64         3       -7.660721e-01
        65         3       -2.171864e+00
        66         3        7.271137e-01
        67         3        1.922150e+00
        68         3       -1.013186e+00
        69         3       -7.954543e-01
        70         3       -1.553365e+00
        71         3       -1.129760e-01
        72         3        7.409849e-01
        73         3       -1.814293e+00
        74         3        2.251356e-01
        75         3        5.583286e-01
        76         3       -2.031557e+00
        77         3       -1.331334e+00
        78         3       -7.492397e-01
        79         3       -4.434473e-02
        80         3       -6.086746e-01
        81         3        4.352735e-01
        82         3       -6.439318e-02
        83         3       -3.165521e-02
        84         3       -6.391181e-01
        85         3        1.870944e-01
        86         3        6.798614e-01
        87         3       -1.556656e+00
        88         3        8.379131e-01
        89         3       -8.352645e-02
        90         3       -8.796795e-01
        91         3        1.359589e+00
        92         3       -1.030387e+00
        93         3        4.508429e-01
        94         3        1.010592e+00
        95         3       -8.683699e-01
        96         3       -1.221896e+00
        97         3        2.463359e+00
        98         3       -1.718734e-01
        99         3        7.103715e-02
       100         3       -1.028031e+00
         1         4        8.071905e-01
         2         4        2.010918e-01
         3         4        9.917306e-01
         4         4       -5.432392e-02
         5         4       -3.606746e-02
         6         4        1.564107e-01
         7         4        1.070731e+00
         8         4        9.823123e-01
         9         4       -8.047437e-01
        10         4        5.669926e-01
        11         4       -5.789268e-02
        12         4       -1.067684e-01
        13         4       -7.298772e-01
        14         4       -3.425927e-01
        15         4        1.233643e-01
        16         4       -7.702372e-02
        17         4       -4.996226e-01
        18         4        1.088511e+00
        19         4        6.164353e-01
        20         4       -3.672938e-01
        21         4        1.940199e-01
        22         4        1.142218e+00
        23         4       -1.448898e-01
        24         4       -6.194580e-02
        25         4       -1.930228e+00
        26         4       -2.098286e+00
        27         4        1.944796e-01
        28         4        2.509177e-01
        29         4        7.960489e-01
        30         4        8.159726e-02
        31         4       -7.009039e-01
        32         4        3.104793e-01
        33         4        9.398797e-01
        34         4        5.325274e-01
        35         4       -3.536617e-02
        36         4       -2.644414e-01
        37         4        2.230209e-01
        38         4       -1.053246e-02
        39         4        7.719021e-02
        40         4        1.594280e+00
        41         4       -4.666925e-01
        42         4        3.765833e-01
        43         4       -3.611143e-01
        44         4        5.890071e-01
        45         4        5.068935e-01
        46         4        1.492444e+00
        47         4       -5.474636e-01
        48         4       -1.003919e-01
        49         4       -1.307137e+00
        50         4       -1.139043e+00
        51         4        8.852787e-02
        52         4        1.055399e+00
        53         4       -5.790497e-01
        54         4       -5.981319e-01
        55         4        1.341605e+00
        56         4        2.031919e-01
        57         4        4.008753e-01
        58         4        1.070261e+00
        59         4       -2.004117e-01
        60         4        4.395920e-01
        61         4        1.773510e+00
        62         4        1.397216e+00
        63         4        2.047845e-01
        64         4        7.087133e-01
        65         4        9.824790e-01
        66         4       -2.187997e-02
        67         4       -2.828271e-01
        68         4       -1.766464e-01
        69         4       -2.105990e-01
        70         4        5.579357e-01
        71         4       -3.898097e-01
        72         4       -1.743439e-01
        73         4        1.014547e+00
        74         4       -1.124820e+00
        75         4       -9.345919e-01
        76         4       -3.036133e+00
        77         4       -5.982867e-01
        78         4       -9.014791e-02
        79         4       -2.567906e-01
        80         4       -5.311772e-01
        81         4        1.515024e-01
        82         4        1.443079e+00
        83         4        7.465057e-01
        84         4        2.073722e-01
        85         4        6.698647e-01
        86         4       -5.450279e-01
        87         4        6.159792e-01
        88         4        2.323594e-01
        89         4       -1.595112e+00
        90         4        1.283480e+00
        91         4       -9.666509e-02
        92         4        1.871473e+00
        93         4       -2.534183e-01
        94         4       -5.182591e-01
        95         4        3.124884e-02
        96         4        2.938302e-01
        97         4        2.169596e+00
        98         4        1.309991e+00
        99         4        1.327716e+00
       100         4       -1.031704e+00
         1         5       -1.421545e-01
         2         5        3.605055e-03
         3         5        1.671605e+00
         4         5        9.463410e-01
         5         5       -3.207747e-01
         6         5        5.498169e-01
         7         5        6.726027e-01
         8         5       -8.403491e-01
         9         5        1.284620e+00
        10         5       -8.405799e-02
        11         5        2.132122e+00
        12         5       -4.103593e-01
        13         5        4.398489e-01
        14         5       -1.597426e+00
        15         5        3.100414e-01
        16         5        9.613924e-03
        17         5       -2.502143e+00
        18         5        3.153106e-01
        19         5        1.137318e+00
        20         5       -5.250066e-01
        21         5        2.192969e+00
        22         5       -2.442984e+00
        23         5        2.877537e+00
        24         5        4.039484e-01
        25         5        1.437002e+00
        26         5       -8.110974e-01
        27         5        9.353362e-01
        28         5        1.574398e+00
        29         5        1.501555e-01
        30         5       -7.286634e-01
        31         5        1.580260e+00
        32         5       -4.568074e-01
        33         5        6.964534e-02
        34         5       -2.753636e+00
        35         5       -9.719685e-02
        36         5        5.374930e-01
        37         5       -7.842791e-01
        38         5       -5.403134e-02
        39         5        1.301772e+00
        40         5        9.857292e-01
        41         5        2.190949e+00
        42         5        1.977699e-01
        43         5        6.309507e-01
        44         5        1.679724e+00
        45         5       -9.455675e-01
        46         5       -7.511857e-01
        47         5       -1.105928e+00
        48         5        4.346055e-01
        49         5       -1.296618e+00
        50         5        6.634058e-01
        51         5        1.206128e+00
        52         5       -9.434921e-02
        53         5        1.485164e+00
        54         5        1.371086e+00
        55         5        2.888203e-01
        56         5        6.707884e-01
        57         5       -8.622150e-01
        58         5       -6.919869e-01
        59         5        5.178778e-01
        60         5       -1.030950e+00
        61         5        7.982250e-01
        62         5       -2.730272e-01
        63         5        1.370894e-01
        64         5        4.490492e-02
        65         5        1.469108e+00
        66         5       -7.016238e-01
        67         5        2.013237e+00
        68         5       -9.080572e-02
        69         5       -3.058857e-01
        70         5       -1.452444e+00
        71         5       -6.266541e-01
        72         5       -8.931179e-01
        73         5        1.011246e+00
        74         5       -1.633322e+00
        75         5       -6.284849e-01
        76         5       -1.044830e+00
        77         5        5.274761e-01
        78         5        1.756012e+00
        79         5        1.705746e+00
        80         5       -9.333823e-01
        81         5       -9.690312e-01
        82         5       -3.863366e-01
        83         5       -2.821341e-02
        84         5        1.800946e+00
        85         5       -4.949935e-01
        86         5        1.496690e-01
        87         5        2.461130e-01
        88         5       -9.556716e-01
        89         5       -1.727218e+00
        90         5       -6.831104e-01
        91         5        1.572949e+00
        92         5       -3.433263e-01
        93         5       -1.859204e+00
        94         5        1.450090e+00
        95         5        5.465486e-02
        96         5        1.293727e+00
        97         5       -8.328524e-01
        98         5       -2.916341e-01
        99         5       -1.861058e+00
       100         5       -1.090464e+00
;

param theta:=
    1       -6.929950e-01
    2       -1.467329e+00
    3        1.073368e+00
    4       -7.352462e-02
    5        3.424387e-01
;
param X_true:=
    1       -3.445074e-02
    2       -2.647682e+00
    3       -2.945637e+00
    4        1.428011e+00
    5        1.409896e+00
    6        6.471216e-01
    7       -1.387857e-01
    8        3.229614e-01
    9       -6.541047e-01
   10       -2.800897e+00
   11        2.481119e+00
   12       -1.119955e+00
   13        9.974346e-01
   14       -2.599856e+00
   15       -9.141463e-01
   16       -3.231515e+00
   17       -2.522504e+00
   18        1.778408e+00
   19        1.631342e+00
   20        4.539899e-01
   21        1.937166e+00
   22        3.293066e-01
   23       -7.263464e-01
   24       -3.622668e+00
   25       -2.509436e+00
   26       -4.391396e+00
   27        2.268104e-01
   28       -2.463400e+00
   29        1.062076e+00
   30        2.579288e+00
   31        7.869197e-01
   32        4.511572e-01
   33        1.012871e+00
   34       -4.796884e+00
   35        2.167962e+00
   36        2.319327e+00
   37        1.961297e+00
   38        7.326387e-01
   39       -1.195988e+00
   40        4.831446e+00
   41        1.782634e+00
   42        1.686524e+00
   43        2.842048e+00
   44       -3.526875e+00
   45       -2.324819e+00
   46       -3.191677e+00
   47       -1.605284e-01
   48       -5.312185e-01
   49       -1.694793e+00
   50        3.196131e-01
   51       -1.117872e+00
   52        3.088271e+00
   53       -7.786360e-01
   54       -1.281653e+00
   55        2.703815e+00
   56        1.681181e-01
   57        1.442157e+00
   58       -1.906111e+00
   59        2.270244e-01
   60       -1.480926e+00
   61       -6.973545e-02
   62        9.613520e-01
   63       -3.349015e-01
   64        2.104430e+00
   65       -9.586722e-01
   66        7.124632e-01
   67        2.978261e+00
   68       -3.652094e+00
   69        1.199492e+00
   70       -1.292970e+00
   71       -1.250151e-01
   72       -7.584575e-01
   73       -2.231068e+00
   74        6.905166e-01
   75       -3.070478e+00
   76       -3.197713e+00
   77       -2.346558e+00
   78       -1.320534e+00
   79        3.726059e-01
   80        2.005413e-01
   81        2.636950e+00
   82        1.271524e+00
   83        4.601796e-01
   84       -1.465548e+00
   85        7.945914e-02
   86        9.522394e-01
   87       -1.503551e+00
   88        2.424618e+00
   89       -1.714750e+00
   90       -1.039561e+00
   91       -1.956968e+00
   92       -1.995270e+00
   93       -7.074243e-01
   94        1.991665e+00
   95       -3.110306e+00
   96        3.163006e-01
   97        2.544131e+00
   98        3.835917e-01
   99       -4.688176e+00
  100       -2.033577e+00
;
param X:=
    1       -9.604212e-01
    2       -2.647682e+00
    3       -2.945637e+00
    4       -6.238895e-01
    5       -1.735792e-01
    6        1.024299e+00
    7       -1.387857e-01
    8        3.229614e-01
    9       -6.541047e-01
   10       -2.800897e+00
   11       -6.565305e-01
   12       -1.119955e+00
   13        9.974346e-01
   14        4.927523e-01
   15       -9.141463e-01
   16       -3.231515e+00
   17        2.218322e+00
   18        1.778408e+00
   19       -5.426292e-01
   20        8.921345e-01
   21        1.937166e+00
   22        3.293066e-01
   23       -7.263464e-01
   24        1.464371e-01
   25       -1.948881e-01
   26       -1.440780e+00
   27       -8.121289e-01
   28       -2.463400e+00
   29       -8.785575e-01
   30        2.579288e+00
   31       -2.403112e+00
   32        4.511572e-01
   33       -1.063360e+00
   34       -8.046083e-01
   35        2.167962e+00
   36        3.593279e-01
   37        1.961297e+00
   38        6.862086e-01
   39       -1.967634e+00
   40        4.831446e+00
   41        1.782634e+00
   42        1.686524e+00
   43        2.842048e+00
   44        5.773441e-01
   45       -2.324819e+00
   46        2.954821e-01
   47       -1.605284e-01
   48        1.845745e-02
   49       -1.694793e+00
   50        3.196131e-01
   51       -1.117872e+00
   52        3.088271e+00
   53       -1.956133e-01
   54       -3.775346e-01
   55        2.703815e+00
   56        1.048574e+00
   57        1.442157e+00
   58       -1.906111e+00
   59       -5.211293e-01
   60        7.496792e-01
   61       -6.973545e-02
   62        9.613520e-01
   63        2.538866e-01
   64        1.480553e+00
   65       -3.578755e-01
   66        7.124632e-01
   67        2.978261e+00
   68       -3.652094e+00
   69       -5.973879e-01
   70       -1.706994e-01
   71       -1.250151e-01
   72        2.788636e+00
   73        3.391251e-01
   74       -1.546598e-01
   75       -2.210202e-01
   76       -3.197713e+00
   77       -1.136534e+00
   78        4.311727e-02
   79        5.095630e-01
   80        1.094397e+00
   81        4.211812e-01
   82        4.434134e-01
   83        1.700212e+00
   84       -1.465548e+00
   85        7.945914e-02
   86        9.522394e-01
   87       -1.503551e+00
   88        2.424618e+00
   89       -5.775305e-01
   90        8.151470e-01
   91       -1.956968e+00
   92       -1.995270e+00
   93        3.676122e-01
   94        3.962640e-02
   95       -3.110306e+00
   96        3.163006e-01
   97        2.544131e+00
   98       -1.362492e+00
   99       -4.688176e+00
  100       -2.374534e+00
;
param outliervec:=
    1    1
    2    0
    3    0
    4    1
    5    1
    6    1
    7    0
    8    0
    9    0
   10    0
   11    1
   12    0
   13    0
   14    1
   15    0
   16    0
   17    1
   18    0
   19    1
   20    1
   21    0
   22    0
   23    0
   24    1
   25    1
   26    1
   27    1
   28    0
   29    1
   30    0
   31    1
   32    0
   33    1
   34    1
   35    0
   36    1
   37    0
   38    1
   39    1
   40    0
   41    0
   42    0
   43    0
   44    1
   45    0
   46    1
   47    0
   48    1
   49    0
   50    0
   51    0
   52    0
   53    1
   54    1
   55    0
   56    1
   57    0
   58    0
   59    1
   60    1
   61    0
   62    0
   63    1
   64    1
   65    1
   66    0
   67    0
   68    0
   69    1
   70    1
   71    0
   72    1
   73    1
   74    1
   75    1
   76    0
   77    1
   78    1
   79    1
   80    1
   81    1
   82    1
   83    1
   84    0
   85    0
   86    0
   87    0
   88    0
   89    1
   90    1
   91    0
   92    0
   93    1
   94    1
   95    0
   96    0
   97    0
   98    1
   99    0
  100    1
;